891828
134,161,111,154,132,228,71,0,6,182,34,86,150,49,107,93,35,66,38,206,146,126,30,198,97,41,112,159,151,190,9,213,45,124,226,133,47,110,224,12,193,96,29,14,137,2,207,68,225,176,121,125,192,78,166,187,123,180,194,205,135,172,147,130,79,131,51,220,58,75,56,84,60,181,24,122,94,83,28,200,7,136,144,143,191,36,33,27,77,54,61,101,168,26,39,80,129,214,204,74,178,195,106,160,115,183,165,95,90,59,15,117,70,48,162,177,158,22,50,72,208,217,85,69,118,113,197,199,13,109,164,119,219,63,67,8,100,88,21,25,116,19,209,62,156,73,42,203,81,76,221,127,140,23,174,17,55,53,91,52,99,215,104,201,98,189,65,218,105,40,120,179,157,148,114,1,102,186,11,128,152,216,20,3,141,169,87,227,108,89,149,170,185,145,223,32,37,202,5,211,103,229,44,171,167,92,212,57,138,10,173,64,153,163,196,142,18,46,16,175,222,43,155,210,4,184,188,31,139,82,134